data;
param nombreJob := 7;
param nombreRessource := 3;
param duree := 1 1 2 1 3 4 4 3 5 1 6 4 7 10;
param capaciteRessource := 1 4 2 14 3 12;
param besoinRessource : 1 2 3 :=
                    1   4 8 8
                    2   1 8 8
                    3   4 1 3
                    4   2 6 4
                    5   2 1 2
                    6   1 2 7
                    7   1 7 4;
end;

